(set-logic HORN)
(set-info :source |
  Benchmark: test_safe_2019/mochi/array_init.ml
  Generated by MoCHi
|)
(set-info :status unknown)
(declare-fun |fail_17[105:0]| ( Int) Bool)
(declare-fun |init[68:3][76:0][83:1][98:0]| ( Int  Int  Int  Int) Bool)
(declare-fun |init[71:3][74:0][85:1][96:0]| ( Int  Int  Int  Int) Bool)
(declare-fun |init[71:2][87:1][94:0]| ( Int  Int  Int  Int) Bool)
(declare-fun |init[71:2][87:0]| ( Int  Int  Int) Bool)
(declare-fun |init[71:3][74:0][85:0]| ( Int  Int  Int) Bool)
(declare-fun |init[68:3][76:0][83:0]| ( Int  Int  Int) Bool)
(declare-fun |init[71:1]| ( Int  Int) Bool)
(declare-fun |init[68:1]| ( Int  Int) Bool)
(assert (not (exists ((x0 Int)) (|fail_17[105:0]| x0))))
(assert (forall ((x0 Int)(x3 Int)(x2 Int)(x1 Int)) (=> (and (|init[68:3][76:0][83:1][98:0]| 0 x1 x2 x3) (and (<= x3 0) (and (<= 0 x2) (<= (+ 1 x2) x1)))) (|fail_17[105:0]| x0))))
(assert (forall ((x0 Int)(x2 Int)(x3 Int)(x4 Int)(x1 Int)) (=> (and (|init[68:1]| x0 x2) (and (|init[71:3][74:0][85:1][96:0]| x1 x2 x3 x4) (and (= x1 (+ 1 x0)) (<= (+ 1 x0) x2)))) (|init[68:3][76:0][83:1][98:0]| x0 x2 x3 x4))))
(assert (forall ((x0 Int)(x1 Int)(x2 Int)(x3 Int)) (=> (and (|init[71:1]| x0 x1) (and (|init[71:2][87:1][94:0]| x0 x1 x2 x3) (>= x0 x1))) (|init[71:3][74:0][85:1][96:0]| x0 x1 x2 x3))))
(assert (forall ((x3 Int)(x4 Int)(x1 Int)(x2 Int)(var37 Int)(var36 Int)) (=> (and (|init[68:1]| x1 x4) (and (|init[71:1]| x3 x4) (and (|init[68:1]| x1 var37) (and (|init[71:2][87:0]| var36 var37 x1) (and (<= (+ 1 x1) var37) (and (= var36 (+ 1 x1)) (and (= x2 1) (and (= x3 (+ 1 x1)) (<= (+ 1 x1) x4))))))))) (|init[71:2][87:1][94:0]| x3 x4 x1 x2))))
(assert (forall ((x0 Int)(x1 Int)(x2 Int)) (=> (and (|init[71:1]| x0 x1) (and (|init[71:3][74:0][85:0]| x0 x1 x2) (>= x0 x1))) (|init[71:2][87:0]| x0 x1 x2))))
(assert (forall ((x2 Int)(x3 Int)(x1 Int)(x0 Int)) (=> (and (|init[68:1]| x0 x3) (and (|init[68:3][76:0][83:0]| x0 x3 x1) (and (|init[71:1]| x2 x3) (and (<= (+ 1 x0) x3) (= x2 (+ 1 x0)))))) (|init[71:3][74:0][85:0]| x2 x3 x1))))
(assert (forall ((x2 Int)(x3 Int)(x1 Int)) (=> (and (|init[68:1]| x2 x3) (and (= x2 0) (and (<= 0 x1) (<= (+ 1 x1) x3)))) (|init[68:3][76:0][83:0]| x2 x3 x1))))
(assert (forall ((x0 Int)(x2 Int)(x1 Int)) (=> (and (|init[68:1]| x1 x2) (and (= x0 (+ 1 x1)) (<= (+ 1 x1) x2))) (|init[71:1]| x0 x2))))
(assert (forall ((x0 Int)(x1 Int)) (=> (= x0 0) (|init[68:1]| x0 x1))))
(check-sat)
(get-model)
(exit)
